NAME : EIL75B
TYPE : PDTSP
DIMENSION : 75
EDGE_WEIGHT_TYPE : EUC_2D
NODE_COORD_SECTION
1 22 22
2 36 26
3 21 45
4 45 35
5 55 20
6 50 50
7 55 45
8 26 59
9 40 66
10 55 65
11 35 51
12 62 35
13 62 57
14 62 24
15 21 36
16 33 44
17 9 56
18 62 48
19 66 14
20 44 13
21 26 13
22 11 28
23 7 43
24 17 64
25 41 46
26 55 34
27 35 16
28 52 26
29 43 26
30 31 76
31 22 53
32 26 29
33 50 40
34 55 50
35 54 10
36 60 15
37 47 66
38 30 60
39 30 50
40 12 17
41 15 14
42 16 19
43 21 48
44 50 30
45 51 42
46 50 15
47 48 21
48 12 38
49 15 56
50 29 39
51 54 38
52 55 57
53 67 41
54 10 70
55 6 25
56 65 27
57 40 60
58 70 64
59 64 4
60 36 6
61 30 20
62 20 30
63 15 5
64 50 70
65 57 72
66 45 42
67 38 33
68 50 4
69 66 8
70 59 5
71 35 60
72 27 24
73 40 20
74 40 37
75 40 40
PICKUP_AND_DELIVERY_SECTION
1 0 0 0 0 0 0
2 0 0 0 0 47 0
3 0 0 0 0 0 22
4 0 0 0 0 0 7
5 0 0 0 0 0 21
6 0 0 0 0 57 0
7 0 0 0 0 4 0
8 0 0 0 0 51 0
9 0 0 0 0 0 43
10 0 0 0 0 0 13
11 0 0 0 0 0 62
12 0 0 0 0 0 68
13 0 0 0 0 10 0
14 0 0 0 0 0 38
15 0 0 0 0 0 72
16 0 0 0 0 0 67
17 0 0 0 0 31 0
18 0 0 0 0 65 0
19 0 0 0 0 70 0
20 0 0 0 0 53 0
21 0 0 0 0 5 0
22 0 0 0 0 3 0
23 0 0 0 0 0 55
24 0 0 0 0 71 0
25 0 0 0 0 0 74
26 0 0 0 0 0 56
27 0 0 0 0 0 40
28 0 0 0 0 0 54
29 0 0 0 0 39 0
30 0 0 0 0 0 58
31 0 0 0 0 0 17
32 0 0 0 0 0 61
33 0 0 0 0 52 0
34 0 0 0 0 0 37
35 0 0 0 0 69 0
36 0 0 0 0 45 0
37 0 0 0 0 34 0
38 0 0 0 0 14 0
39 0 0 0 0 0 29
40 0 0 0 0 27 0
41 0 0 0 0 63 0
42 0 0 0 0 0 59
43 0 0 0 0 9 0
44 0 0 0 0 73 0
45 0 0 0 0 0 36
46 0 0 0 0 0 60
47 0 0 0 0 0 2
48 0 0 0 0 50 0
49 0 0 0 0 0 64
50 0 0 0 0 0 48
51 0 0 0 0 0 8
52 0 0 0 0 0 33
53 0 0 0 0 0 20
54 0 0 0 0 28 0
55 0 0 0 0 23 0
56 0 0 0 0 26 0
57 0 0 0 0 0 6
58 0 0 0 0 30 0
59 0 0 0 0 42 0
60 0 0 0 0 46 0
61 0 0 0 0 32 0
62 0 0 0 0 11 0
63 0 0 0 0 0 41
64 0 0 0 0 49 0
65 0 0 0 0 0 18
66 0 0 0 0 75 0
67 0 0 0 0 16 0
68 0 0 0 0 12 0
69 0 0 0 0 0 35
70 0 0 0 0 0 19
71 0 0 0 0 0 24
72 0 0 0 0 15 0
73 0 0 0 0 0 44
74 0 0 0 0 25 0
75 0 0 0 0 0 66
DEPOT_SECTION
1 
-1
EOF
